12 9
50 14
0 13 1 2
19 16 2 5
14 19 1 1
2 10 3 4
9 0 2 5
10 19 2 3
5 20 1 5
2 17 2 1
5 12 2 4
0 14 3 4
8 16 2 1
17 15 2 3
15 13 2 4
4 16 3 3
7 20 3 5
6 0 3 4
1 3 3 5
8 6 2 5
1 15 1 3
1 12 1 2
1 4 3 3
7 16 3 3
15 6 2 2
12 0 1 2
3 0 3 3
20 18 3 4
3 20 3 4
20 1 2 4
0 14 1 4
7 0 3 3
1 1 3 3
7 5 2 4
15 8 1 3
6 8 1 3
9 1 2 2
13 13 2 5
17 11 3 3
20 11 3 5
14 7 3 3
11 11 1 3
7 7 1 5
0 6 1 5
1 12 3 2
8 10 1 4
13 15 3 4
17 6 3 3
7 0 3 3
8 2 1 5
19 12 2 3
7 13 1 5
